p wcnf 154 308 309 
1 113 6 0 
1 -76 -83 0 
1 112 110 0 
1 -71 -95 0 
1 56 -37 0 
1 101 127 0 
1 123 -49 0 
1 16 100 0 
1 -22 147 0 
1 40 -127 0 
1 -99 -64 0 
1 66 82 0 
1 36 -25 0 
1 153 -44 0 
1 13 -132 0 
1 50 84 0 
1 -135 -65 0 
1 -28 122 0 
1 -78 8 0 
1 123 -7 0 
1 6 47 0 
1 53 -136 0 
1 -36 -47 0 
1 -39 12 0 
1 41 91 0 
1 -107 125 0 
1 113 34 0 
1 -81 -62 0 
1 -64 53 0 
1 132 -151 0 
1 86 -18 0 
1 -96 109 0 
1 51 -59 0 
1 -148 131 0 
1 137 -146 0 
1 61 11 0 
1 -121 -108 0 
1 -15 -107 0 
1 -28 -130 0 
1 18 78 0 
1 -109 48 0 
1 -38 -123 0 
1 141 150 0 
1 46 -103 0 
1 -138 147 0 
1 75 150 0 
1 -109 -20 0 
1 -108 150 0 
1 -72 68 0 
1 25 28 0 
1 80 64 0 
1 -15 -111 0 
1 -106 -81 0 
1 -136 -141 0 
1 -118 11 0 
1 -122 -92 0 
1 -112 126 0 
1 -148 -20 0 
1 1 -134 0 
1 127 -46 0 
1 -150 -34 0 
1 118 3 0 
1 -28 -108 0 
1 -62 132 0 
1 58 -147 0 
1 -122 104 0 
1 10 -124 0 
1 96 60 0 
1 70 80 0 
1 -50 133 0 
1 57 -20 0 
1 84 40 0 
1 -42 -48 0 
1 -17 76 0 
1 142 -72 0 
1 -111 -41 0 
1 20 61 0 
1 -85 104 0 
1 85 -80 0 
1 -11 -95 0 
1 70 99 0 
1 -28 147 0 
1 122 -145 0 
1 -67 -32 0 
1 74 -65 0 
1 -58 130 0 
1 -133 107 0 
1 105 97 0 
1 113 138 0 
1 -18 152 0 
1 -33 128 0 
1 68 -90 0 
1 26 76 0 
1 -85 127 0 
1 44 -97 0 
1 132 -139 0 
1 -63 -32 0 
1 -143 -127 0 
1 -79 11 0 
1 -122 -38 0 
1 61 -11 0 
1 -119 -4 0 
1 -69 47 0 
1 -103 70 0 
1 -9 41 0 
1 -150 -33 0 
1 -90 11 0 
1 -19 -107 0 
1 -109 43 0 
1 57 3 0 
1 137 136 0 
1 26 -134 0 
1 121 -78 0 
1 -99 -86 0 
1 71 147 0 
1 96 67 0 
1 44 -70 0 
1 -147 79 0 
1 92 -88 0 
1 154 132 0 
1 48 -34 0 
1 35 72 0 
1 -102 -37 0 
1 -53 -75 0 
1 122 -22 0 
1 27 -117 0 
1 -142 -82 0 
1 -38 -72 0 
1 -44 22 0 
1 77 105 0 
1 132 26 0 
1 138 -125 0 
1 97 -63 0 
1 84 151 0 
1 46 -97 0 
1 -13 -93 0 
1 92 -135 0 
1 114 108 0 
1 -59 89 0 
1 81 51 0 
1 -120 -54 0 
1 -154 -90 0 
1 -116 -115 0 
1 25 -45 0 
1 -143 1 0 
1 -146 55 0 
1 -8 56 0 
1 -116 5 0 
1 29 -99 0 
1 -97 -68 0 
1 40 154 0 
1 -110 -108 0 
1 125 2 0 
1 -73 138 0 
1 74 -147 0 
1 -59 -81 0 
1 -49 -83 0 
1 8 51 0 
1 153 -105 0 
1 32 -16 0 
1 26 41 0 
1 -6 39 0 
1 -102 -145 0 
1 111 68 0 
1 -30 -37 0 
1 148 91 0 
1 -146 -73 0 
1 -68 74 0 
1 56 -11 0 
1 21 -120 0 
1 75 46 0 
1 -24 32 0 
1 -144 -44 0 
1 105 -112 0 
1 -37 -38 0 
1 -115 -19 0 
1 43 52 0 
1 136 125 0 
1 -116 -135 0 
1 50 107 0 
1 27 -38 0 
1 -23 14 0 
1 39 -7 0 
1 83 -8 0 
1 66 -149 0 
1 150 153 0 
1 -40 75 0 
1 -76 71 0 
1 125 -135 0 
1 42 121 0 
1 -56 -30 0 
1 -92 130 0 
1 95 119 0 
1 -44 31 0 
1 92 -44 0 
1 -32 87 0 
1 -117 -104 0 
1 18 -44 0 
1 126 -73 0 
1 -61 120 0 
1 9 -65 0 
1 -5 -58 0 
1 -33 -111 0 
1 -40 -137 0 
1 3 -88 0 
1 -26 152 0 
1 -95 -22 0 
1 153 -41 0 
1 -84 -37 0 
1 127 123 0 
1 -18 42 0 
1 -57 37 0 
1 8 -85 0 
1 -25 85 0 
1 88 53 0 
1 -112 -117 0 
1 -117 -3 0 
1 -80 -43 0 
1 -115 -87 0 
1 -70 9 0 
1 -20 -91 0 
1 -40 127 0 
1 3 -147 0 
1 34 -95 0 
1 -70 121 0 
1 92 12 0 
1 -21 70 0 
1 -23 -77 0 
1 -120 -140 0 
1 137 -65 0 
1 -74 147 0 
1 -117 147 0 
1 74 41 0 
1 92 153 0 
1 57 -64 0 
1 114 91 0 
1 -122 133 0 
1 -117 -100 0 
1 9 15 0 
1 -148 62 0 
1 5 99 0 
1 12 19 0 
1 99 -90 0 
1 -115 -18 0 
1 19 150 0 
1 -146 63 0 
1 106 -30 0 
1 -38 -78 0 
1 -142 -27 0 
1 -154 93 0 
1 -5 59 0 
1 -92 8 0 
1 77 -114 0 
1 -20 154 0 
1 -74 31 0 
1 131 -13 0 
1 -112 10 0 
1 141 -46 0 
1 133 -154 0 
1 130 -101 0 
1 -32 26 0 
1 -9 54 0 
1 37 -39 0 
1 -16 143 0 
1 -135 42 0 
1 109 102 0 
1 145 -7 0 
1 77 12 0 
1 57 16 0 
1 85 -39 0 
1 55 138 0 
1 -17 102 0 
1 148 43 0 
1 -139 129 0 
1 -63 -13 0 
1 -43 62 0 
1 18 88 0 
1 -45 124 0 
1 15 -148 0 
1 112 -55 0 
1 -13 -57 0 
1 7 -63 0 
1 48 93 0 
1 -110 98 0 
1 36 -140 0 
1 10 -107 0 
1 -42 119 0 
1 45 121 0 
1 32 88 0 
1 -50 62 0 
1 -111 92 0 
1 -77 -72 0 
1 148 -20 0 
1 -39 -10 0 
1 153 -111 0 
1 -63 -70 0 
1 37 -49 0 
1 72 83 0 
1 -40 -2 0 
1 139 -42 0 
1 5 -146 0 
1 -140 -127 0 
1 72 144 0 
1 -17 -106 0 
1 -57 -104 0 
1 -10 -80 0 
1 119 57 0 
1 -133 -120 0 
